num_offers = 20;
num_halls = 10;
start=[16,29,18,26,37,15,13,34,63,3,58,13,32,21,40,81,7,3,15,32];
end=[26,59,27,41,78,100,79,92,97,60,79,38,72,100,62,96,66,59,43,75];
price=[547,1255,296,997,2612,2116,3173,2874,2926,2883,1007,537,3491,2225,1191,1002,5768,4581,2756,1103];
requirement=[482,618,434,664,289,398,380,342,789,514,206,817,331,514,491,919,738,456,622,582];
capacity=[764,757,518,636,811,988,276,311,1000,507];
